(declare-const X String)
; Referer\x3A\s+HXDownload.*Referer\x3AGREATDripline
(assert (not (str.in_re X (re.++ (str.to_re "Referer:") (re.+ (re.union (str.to_re " ") (str.to_re "\u{9}") (str.to_re "\u{a}") (str.to_re "\u{c}") (str.to_re "\u{d}"))) (str.to_re "HXDownload") (re.* re.allchar) (str.to_re "Referer:GREATDripline\u{a}")))))
; /\x2epmd([\?\x5c\x2f]|$)/smiU
(assert (str.in_re X (re.++ (str.to_re "/.pmd") (re.union (str.to_re "?") (str.to_re "\u{5c}") (str.to_re "/")) (str.to_re "/smiU\u{a}"))))
; ^(\d{5}-\d{4}|\d{5}|\d{9})$|^([a-zA-Z]\d[a-zA-Z]( )?\d[a-zA-Z]\d)$
(assert (not (str.in_re X (re.union (re.++ (str.to_re "\u{a}") (re.union (re.range "a" "z") (re.range "A" "Z")) (re.range "0" "9") (re.union (re.range "a" "z") (re.range "A" "Z")) (re.opt (str.to_re " ")) (re.range "0" "9") (re.union (re.range "a" "z") (re.range "A" "Z")) (re.range "0" "9")) (re.++ ((_ re.loop 5 5) (re.range "0" "9")) (str.to_re "-") ((_ re.loop 4 4) (re.range "0" "9"))) ((_ re.loop 5 5) (re.range "0" "9")) ((_ re.loop 9 9) (re.range "0" "9"))))))
; httphost[^\n\r]*www\x2Emaxifiles\x2Ecom
(assert (not (str.in_re X (re.++ (str.to_re "httphost") (re.* (re.union (str.to_re "\u{a}") (str.to_re "\u{d}"))) (str.to_re "www.maxifiles.com\u{a}")))))
; ^\(?[\d]{3}\)?[\s-]?[\d]{3}[\s-]?[\d]{4}$
(assert (str.in_re X (re.++ (re.opt (str.to_re "(")) ((_ re.loop 3 3) (re.range "0" "9")) (re.opt (str.to_re ")")) (re.opt (re.union (str.to_re "-") (str.to_re " ") (str.to_re "\u{9}") (str.to_re "\u{a}") (str.to_re "\u{c}") (str.to_re "\u{d}"))) ((_ re.loop 3 3) (re.range "0" "9")) (re.opt (re.union (str.to_re "-") (str.to_re " ") (str.to_re "\u{9}") (str.to_re "\u{a}") (str.to_re "\u{c}") (str.to_re "\u{d}"))) ((_ re.loop 4 4) (re.range "0" "9")) (str.to_re "\u{a}"))))
(check-sat)

(exit)
